% Logging successfully configured
%%%mzn-stat: initTime=0.003107771
%%%mzn-stat: objective=847
%%%mzn-stat: nodes=83
%%%mzn-stat: restarts=0
%%%mzn-stat: peakDepth=80
%%%mzn-stat: solveTime=0.000269889
%%%mzn-stat: variables=208
%%%mzn-stat: propagators=318
%%%mzn-stat: failures=1
%%%mzn-stat: propagations=1087
%%%mzn-stat: nogoods=1
%%%mzn-stat: numAtomicConstraintsPropagated=0
%%%mzn-stat: circuitNumber191PropagationsThatFoundConflict=0
%%%mzn-stat: circuitNumber191TotalFixedEdgesAtConflict=0
%%%mzn-stat: circuitNumber191NumberOfConflicts=0
%%%mzn-stat: circuitNumber191PropagationsThatPruned=0
%%%mzn-stat: circuitNumber191PropagationsTotal=14
%%%mzn-stat: AverageConflictSize=2
%%%mzn-stat: NumUnitNogoodsLearned=0
%%%mzn-stat: AverageLearnedNogoodLength=7
%%%mzn-stat: AverageBacktrackAmount=0
%%%mzn-stat: AverageLbd=4
%%%mzn-stat: 2AutonomousSearchNumBackupCalled=69
%%%mzn-stat: 2AutonomousSearchNumPredicatesRemoved=0
%%%mzn-stat: 2AutonomousSearchNumCalls=70
%%%mzn-stat: 2AutonomousSearchNumPredicatesAdded=41
%%%mzn-stat: 2AutonomousSearchAverageSizeOfHeap=0.5857142857142857
%%%mzn-stat: 2AutonomousSearchNumAssignedPredicatesEncountered=41
%%%mzn-stat-end
maxleg = 847;
succ = array1d(1..20,[3, 9, 6, 5, 10, 11, 8, 13, 12, 15, 16, 19, 2, 7, 17, 18, 20, 4, 1, 14]);
% time elapsed: 9.74 s
----------
%%%mzn-stat: initTime=0.003107771
%%%mzn-stat: objective=472
%%%mzn-stat: nodes=167
%%%mzn-stat: restarts=0
%%%mzn-stat: peakDepth=80
%%%mzn-stat: solveTime=0.000657386
%%%mzn-stat: variables=208
%%%mzn-stat: propagators=318
%%%mzn-stat: failures=7
%%%mzn-stat: propagations=2161
%%%mzn-stat: nogoods=7
%%%mzn-stat: numAtomicConstraintsPropagated=0
%%%mzn-stat: circuitNumber191PropagationsThatFoundConflict=2
%%%mzn-stat: circuitNumber191TotalFixedEdgesAtConflict=34
%%%mzn-stat: circuitNumber191NumberOfConflicts=2
%%%mzn-stat: circuitNumber191PropagationsThatPruned=4
%%%mzn-stat: circuitNumber191PropagationsTotal=33
%%%mzn-stat: AverageConflictSize=2.2857142857142856
%%%mzn-stat: NumUnitNogoodsLearned=0
%%%mzn-stat: AverageLearnedNogoodLength=5.571428571428571
%%%mzn-stat: AverageBacktrackAmount=0
%%%mzn-stat: AverageLbd=3.4285714285714284
%%%mzn-stat: 2AutonomousSearchNumBackupCalled=138
%%%mzn-stat: 2AutonomousSearchNumPredicatesRemoved=0
%%%mzn-stat: 2AutonomousSearchNumCalls=140
%%%mzn-stat: 2AutonomousSearchNumPredicatesAdded=240
%%%mzn-stat: 2AutonomousSearchAverageSizeOfHeap=1.7357142857142858
%%%mzn-stat: 2AutonomousSearchNumAssignedPredicatesEncountered=243
%%%mzn-stat-end
maxleg = 472;
succ = array1d(1..20,[3, 9, 6, 5, 10, 19, 8, 13, 16, 15, 18, 1, 12, 7, 17, 11, 20, 4, 2, 14]);
% time elapsed: 9.74 s
----------
%%%mzn-stat: initTime=0.003107771
%%%mzn-stat: objective=425
%%%mzn-stat: nodes=234
%%%mzn-stat: restarts=0
%%%mzn-stat: peakDepth=80
%%%mzn-stat: solveTime=0.000821968
%%%mzn-stat: variables=208
%%%mzn-stat: propagators=318
%%%mzn-stat: failures=7
%%%mzn-stat: propagations=2772
%%%mzn-stat: nogoods=7
%%%mzn-stat: numAtomicConstraintsPropagated=0
%%%mzn-stat: circuitNumber191PropagationsThatFoundConflict=2
%%%mzn-stat: circuitNumber191TotalFixedEdgesAtConflict=34
%%%mzn-stat: circuitNumber191NumberOfConflicts=2
%%%mzn-stat: circuitNumber191PropagationsThatPruned=5
%%%mzn-stat: circuitNumber191PropagationsTotal=43
%%%mzn-stat: AverageConflictSize=2.2857142857142856
%%%mzn-stat: NumUnitNogoodsLearned=0
%%%mzn-stat: AverageLearnedNogoodLength=5.571428571428571
%%%mzn-stat: AverageBacktrackAmount=0
%%%mzn-stat: AverageLbd=3.4285714285714284
%%%mzn-stat: 2AutonomousSearchNumBackupCalled=195
%%%mzn-stat: 2AutonomousSearchNumPredicatesRemoved=0
%%%mzn-stat: 2AutonomousSearchNumCalls=198
%%%mzn-stat: 2AutonomousSearchNumPredicatesAdded=240
%%%mzn-stat: 2AutonomousSearchAverageSizeOfHeap=2.2474747474747474
%%%mzn-stat: 2AutonomousSearchNumAssignedPredicatesEncountered=445
%%%mzn-stat-end
maxleg = 425;
succ = array1d(1..20,[11, 9, 6, 5, 10, 19, 8, 13, 12, 15, 16, 1, 3, 7, 17, 18, 20, 4, 2, 14]);
% time elapsed: 9.74 s
----------
%%%mzn-stat: initTime=0.003107771
%%%mzn-stat: objective=416
%%%mzn-stat: nodes=322
%%%mzn-stat: restarts=0
%%%mzn-stat: peakDepth=80
%%%mzn-stat: solveTime=0.001743754
%%%mzn-stat: variables=208
%%%mzn-stat: propagators=318
%%%mzn-stat: failures=18
%%%mzn-stat: propagations=4878
%%%mzn-stat: nogoods=18
%%%mzn-stat: numAtomicConstraintsPropagated=0
%%%mzn-stat: circuitNumber191PropagationsThatFoundConflict=2
%%%mzn-stat: circuitNumber191TotalFixedEdgesAtConflict=34
%%%mzn-stat: circuitNumber191NumberOfConflicts=2
%%%mzn-stat: circuitNumber191PropagationsThatPruned=11
%%%mzn-stat: circuitNumber191PropagationsTotal=63
%%%mzn-stat: AverageConflictSize=3.6666666666666665
%%%mzn-stat: NumUnitNogoodsLearned=0
%%%mzn-stat: AverageLearnedNogoodLength=7.833333333333333
%%%mzn-stat: AverageBacktrackAmount=0
%%%mzn-stat: AverageLbd=4.277777777777778
%%%mzn-stat: 2AutonomousSearchNumBackupCalled=263
%%%mzn-stat: 2AutonomousSearchNumPredicatesRemoved=0
%%%mzn-stat: 2AutonomousSearchNumCalls=267
%%%mzn-stat: 2AutonomousSearchNumPredicatesAdded=596
%%%mzn-stat: 2AutonomousSearchAverageSizeOfHeap=3.202247191011236
%%%mzn-stat: 2AutonomousSearchNumAssignedPredicatesEncountered=855
%%%mzn-stat-end
maxleg = 416;
succ = array1d(1..20,[11, 9, 19, 5, 10, 3, 8, 13, 12, 15, 16, 1, 6, 7, 17, 18, 20, 4, 2, 14]);
% time elapsed: 9.74 s
----------
==========
% time elapsed: 9.75 s
%%%mzn-stat: initTime=0.003107771
%%%mzn-stat: objective=416
%%%mzn-stat: nodes=512
%%%mzn-stat: restarts=0
%%%mzn-stat: peakDepth=80
%%%mzn-stat: solveTime=0.01513904
%%%mzn-stat: variables=208
%%%mzn-stat: propagators=318
%%%mzn-stat: failures=189
%%%mzn-stat: propagations=35008
%%%mzn-stat: nogoods=189
%%%mzn-stat: numAtomicConstraintsPropagated=0
%%%mzn-stat: circuitNumber191PropagationsThatFoundConflict=22
%%%mzn-stat: circuitNumber191TotalFixedEdgesAtConflict=269
%%%mzn-stat: circuitNumber191NumberOfConflicts=22
%%%mzn-stat: circuitNumber191PropagationsThatPruned=103
%%%mzn-stat: circuitNumber191PropagationsTotal=322
%%%mzn-stat: AverageConflictSize=3.4021164021164023
%%%mzn-stat: NumUnitNogoodsLearned=1
%%%mzn-stat: AverageLearnedNogoodLength=11.253968253968255
%%%mzn-stat: AverageBacktrackAmount=0
%%%mzn-stat: AverageLbd=4.322751322751323
%%%mzn-stat: 2AutonomousSearchNumBackupCalled=263
%%%mzn-stat: 2AutonomousSearchNumPredicatesRemoved=0
%%%mzn-stat: 2AutonomousSearchNumCalls=267
%%%mzn-stat: 2AutonomousSearchNumPredicatesAdded=1222
%%%mzn-stat: 2AutonomousSearchAverageSizeOfHeap=3.202247191011236
%%%mzn-stat: 2AutonomousSearchNumAssignedPredicatesEncountered=855
%%%mzn-stat-end
